7
2147483647 42 22 92 44 56 69 
42 2147483647 45 12 3 85 96 
22 45 2147483647 1 69 70 87 
92 12 1 2147483647 79 94 70 
44 3 69 79 2147483647 49 16 
56 85 70 94 49 2147483647 96 
69 96 87 70 16 96 2147483647 
